p cnf 225 1
225 0
w 1 0.756464
w 2 1 0.886551
w 2 -1 0.0149208
w 3 2 0.689755
w 3 -2 0.576821
w 4 3 1
w 4 -3 0
w 5 4 1
w 5 -4 0
w 6 5 0.844594
w 6 -5 0.258045
w 7 6 1
w 7 -6 0
w 8 7 0.104527
w 8 -7 0.950221
w 9 8 1
w 9 -8 0
w 10 9 0
w 10 -9 1
w 11 10 1
w 11 -10 0
w 12 11 0.0316107
w 12 -11 0.261796
w 13 12 0
w 13 -12 1
w 14 13 0
w 14 -13 1
w 15 14 0.125852
w 15 -14 0.0258176
w 16 1 0.815607
w 16 -1 0.602639
w 17 16 2 1
w 17 16 -2 1
w 17 -16 2 0
w 17 -16 -2 0
w 18 17 3 0.211617
w 18 17 -3 0.432653
w 18 -17 3 0.113115
w 18 -17 -3 0.957832
w 19 18 4 0.0633359
w 19 18 -4 0.345564
w 19 -18 4 0.335513
w 19 -18 -4 0.0889417
w 20 19 5 0
w 20 19 -5 0
w 20 -19 5 0
w 20 -19 -5 1
w 21 20 6 0.373969
w 21 20 -6 0.505927
w 21 -20 6 0.202706
w 21 -20 -6 0.384866
w 22 21 7 1
w 22 21 -7 1
w 22 -21 7 0
w 22 -21 -7 1
w 23 22 8 1
w 23 22 -8 0
w 23 -22 8 1
w 23 -22 -8 0
w 24 23 9 0
w 24 23 -9 1
w 24 -23 9 1
w 24 -23 -9 1
w 25 24 10 0
w 25 24 -10 1
w 25 -24 10 0
w 25 -24 -10 1
w 26 25 11 0.74402
w 26 25 -11 0.867264
w 26 -25 11 0.697596
w 26 -25 -11 0.136047
w 27 26 12 0.071565
w 27 26 -12 0.641975
w 27 -26 12 0.0333743
w 27 -26 -12 0.456431
w 28 27 13 1
w 28 27 -13 0
w 28 -27 13 0
w 28 -27 -13 0
w 29 28 14 0.414652
w 29 28 -14 0.201626
w 29 -28 14 0.914933
w 29 -28 -14 0.185053
w 30 29 15 0
w 30 29 -15 1
w 30 -29 15 1
w 30 -29 -15 1
w 31 16 0
w 31 -16 1
w 32 31 17 0.392333
w 32 31 -17 0.222492
w 32 -31 17 0.0709439
w 32 -31 -17 0.970392
w 33 32 18 0.938208
w 33 32 -18 0.667988
w 33 -32 18 0.10256
w 33 -32 -18 0.768876
w 34 33 19 0.744534
w 34 33 -19 0.80225
w 34 -33 19 0.195984
w 34 -33 -19 0.875793
w 35 34 20 0
w 35 34 -20 1
w 35 -34 20 0
w 35 -34 -20 1
w 36 35 21 0.871905
w 36 35 -21 0.858469
w 36 -35 21 0.0733213
w 36 -35 -21 0.151789
w 37 36 22 0.240391
w 37 36 -22 0.942586
w 37 -36 22 0.502241
w 37 -36 -22 0.347311
w 38 37 23 0.407529
w 38 37 -23 0.739644
w 38 -37 23 0.00396596
w 38 -37 -23 0.478473
w 39 38 24 0.970478
w 39 38 -24 0.416681
w 39 -38 24 0.378023
w 39 -38 -24 0.073038
w 40 39 25 1
w 40 39 -25 1
w 40 -39 25 1
w 40 -39 -25 0
w 41 40 26 0.15199
w 41 40 -26 0.376658
w 41 -40 26 0.166982
w 41 -40 -26 0.822268
w 42 41 27 0
w 42 41 -27 1
w 42 -41 27 1
w 42 -41 -27 1
w 43 42 28 0.85233
w 43 42 -28 0.368964
w 43 -42 28 0.788548
w 43 -42 -28 0.35457
w 44 43 29 0.570022
w 44 43 -29 0.762099
w 44 -43 29 0.455918
w 44 -43 -29 0.573988
w 45 44 30 0
w 45 44 -30 1
w 45 -44 30 1
w 45 -44 -30 1
w 46 31 0.661553
w 46 -31 0.435077
w 47 46 32 0.975113
w 47 46 -32 0.128442
w 47 -46 32 0.982606
w 47 -46 -32 0.351771
w 48 47 33 0
w 48 47 -33 1
w 48 -47 33 1
w 48 -47 -33 0
w 49 48 34 0.479247
w 49 48 -34 0.345009
w 49 -48 34 0.702959
w 49 -48 -34 0.848211
w 50 49 35 1
w 50 49 -35 1
w 50 -49 35 0
w 50 -49 -35 0
w 51 50 36 0
w 51 50 -36 0
w 51 -50 36 1
w 51 -50 -36 1
w 52 51 37 0.730335
w 52 51 -37 0.439539
w 52 -51 37 0.560263
w 52 -51 -37 0.391888
w 53 52 38 0.390879
w 53 52 -38 0.367
w 53 -52 38 0.00305806
w 53 -52 -38 0.373485
w 54 53 39 0.298482
w 54 53 -39 0.178359
w 54 -53 39 0.390736
w 54 -53 -39 0.649158
w 55 54 40 0.241365
w 55 54 -40 0.128405
w 55 -54 40 0.0224158
w 55 -54 -40 0.944324
w 56 55 41 0.155973
w 56 55 -41 0.00185371
w 56 -55 41 0.541101
w 56 -55 -41 0.859553
w 57 56 42 0.561504
w 57 56 -42 0.137121
w 57 -56 42 0.881683
w 57 -56 -42 0.747862
w 58 57 43 0.599137
w 58 57 -43 0.478196
w 58 -57 43 0.398695
w 58 -57 -43 0.159399
w 59 58 44 0.273311
w 59 58 -44 0.550278
w 59 -58 44 0.237084
w 59 -58 -44 0.276369
w 60 59 45 0.955855
w 60 59 -45 0.574851
w 60 -59 45 0.102123
w 60 -59 -45 0.346591
w 61 46 0
w 61 -46 1
w 62 61 47 0.352414
w 62 61 -47 0.801945
w 62 -61 47 0.532281
w 62 -61 -47 0.329029
w 63 62 48 0.534135
w 63 62 -48 0.87013
w 63 -62 48 0.817472
w 63 -62 -48 0.355617
w 64 63 49 1
w 64 63 -49 1
w 64 -63 49 1
w 64 -63 -49 0
w 65 64 50 0.657692
w 65 64 -50 0.312444
w 65 -64 50 0.995836
w 65 -64 -50 0.527776
w 66 65 51 0.546115
w 66 65 -51 0.76486
w 66 -65 51 0.862123
w 66 -65 -51 0.469878
w 67 66 52 0.436974
w 67 66 -52 0.572001
w 67 -66 52 0.0673056
w 67 -66 -52 0.660983
w 68 67 53 0
w 68 67 -53 1
w 68 -67 53 1
w 68 -67 -53 1
w 69 68 54 1
w 69 68 -54 1
w 69 -68 54 1
w 69 -68 -54 0
w 70 69 55 0
w 70 69 -55 1
w 70 -69 55 0
w 70 -69 -55 1
w 71 70 56 0.151032
w 71 70 -56 0.481378
w 71 -70 56 0.109653
w 71 -70 -56 0.146868
w 72 71 57 0
w 72 71 -57 0
w 72 -71 57 0
w 72 -71 -57 1
w 73 72 58 0
w 73 72 -58 0
w 73 -72 58 1
w 73 -72 -58 1
w 74 73 59 0.0863927
w 74 73 -59 0.217296
w 74 -73 59 0.668884
w 74 -73 -59 0.239869
w 75 74 60 0
w 75 74 -60 1
w 75 -74 60 1
w 75 -74 -60 0
w 76 61 0
w 76 -61 1
w 77 76 62 0.163592
w 77 76 -62 0.518406
w 77 -76 62 0.691742
w 77 -76 -62 0.960802
w 78 77 63 0.17312
w 78 77 -63 0.0704555
w 78 -77 63 0.816306
w 78 -77 -63 0.182274
w 79 78 64 0.509288
w 79 78 -64 0.956287
w 79 -78 64 0.323394
w 79 -78 -64 0.672149
w 80 79 65 0
w 80 79 -65 1
w 80 -79 65 1
w 80 -79 -65 1
w 81 80 66 1
w 81 80 -66 0
w 81 -80 66 1
w 81 -80 -66 1
w 82 81 67 0.0845364
w 82 81 -67 0.761699
w 82 -81 67 0.877446
w 82 -81 -67 0.364668
w 83 82 68 0.745501
w 83 82 -68 0.52826
w 83 -82 68 0.483916
w 83 -82 -68 0.437243
w 84 83 69 1
w 84 83 -69 0
w 84 -83 69 1
w 84 -83 -69 1
w 85 84 70 0.325381
w 85 84 -70 0.478948
w 85 -84 70 0.748923
w 85 -84 -70 0.648776
w 86 85 71 1
w 86 85 -71 0
w 86 -85 71 1
w 86 -85 -71 0
w 87 86 72 0.0515102
w 87 86 -72 0.44333
w 87 -86 72 0.582333
w 87 -86 -72 0.784782
w 88 87 73 0
w 88 87 -73 0
w 88 -87 73 1
w 88 -87 -73 1
w 89 88 74 1
w 89 88 -74 1
w 89 -88 74 0
w 89 -88 -74 1
w 90 89 75 1
w 90 89 -75 0
w 90 -89 75 1
w 90 -89 -75 0
w 91 76 0
w 91 -76 1
w 92 91 77 1
w 92 91 -77 1
w 92 -91 77 0
w 92 -91 -77 0
w 93 92 78 0.75166
w 93 92 -78 0.600803
w 93 -92 78 0.86095
w 93 -92 -78 0.691722
w 94 93 79 0.30428
w 94 93 -79 0.274056
w 94 -93 79 0.437096
w 94 -93 -79 0.382792
w 95 94 80 0.306415
w 95 94 -80 0.223003
w 95 -94 80 0.623329
w 95 -94 -80 0.540402
w 96 95 81 1
w 96 95 -81 1
w 96 -95 81 1
w 96 -95 -81 0
w 97 96 82 0.761353
w 97 96 -82 0.68476
w 97 -96 82 0.364787
w 97 -96 -82 0.174005
w 98 97 83 0
w 98 97 -83 0
w 98 -97 83 1
w 98 -97 -83 0
w 99 98 84 0
w 99 98 -84 1
w 99 -98 84 0
w 99 -98 -84 1
w 100 99 85 0.361417
w 100 99 -85 0.645082
w 100 -99 85 0.00341957
w 100 -99 -85 0.798513
w 101 100 86 1
w 101 100 -86 0
w 101 -100 86 1
w 101 -100 -86 1
w 102 101 87 0.279601
w 102 101 -87 0.618909
w 102 -101 87 0.947979
w 102 -101 -87 0.597963
w 103 102 88 1
w 103 102 -88 0
w 103 -102 88 0
w 103 -102 -88 0
w 104 103 89 0.465826
w 104 103 -89 0.36772
w 104 -103 89 0.598925
w 104 -103 -89 0.297714
w 105 104 90 0.707226
w 105 104 -90 0.777566
w 105 -104 90 0.691343
w 105 -104 -90 0.41633
w 106 91 1
w 106 -91 0
w 107 106 92 0.76345
w 107 106 -92 0.424127
w 107 -106 92 0.576261
w 107 -106 -92 0.791323
w 108 107 93 0.681189
w 108 107 -93 0.0422
w 108 -107 93 0.0742343
w 108 -107 -93 0.326519
w 109 108 94 0
w 109 108 -94 1
w 109 -108 94 1
w 109 -108 -94 1
w 110 109 95 0.279081
w 110 109 -95 0.172309
w 110 -109 95 0.643159
w 110 -109 -95 0.812402
w 111 110 96 0.0108795
w 111 110 -96 0.411327
w 111 -110 96 0.935848
w 111 -110 -96 0.664581
w 112 111 97 0
w 112 111 -97 0
w 112 -111 97 0
w 112 -111 -97 1
w 113 112 98 0.31263
w 113 112 -98 0.595232
w 113 -112 98 0.200759
w 113 -112 -98 0.88889
w 114 113 99 1
w 114 113 -99 0
w 114 -113 99 1
w 114 -113 -99 1
w 115 114 100 0.750557
w 115 114 -100 0.905652
w 115 -114 100 0.171095
w 115 -114 -100 0.670321
w 116 115 101 0.947529
w 116 115 -101 0.949401
w 116 -115 101 0.168306
w 116 -115 -101 0.590688
w 117 116 102 0.80644
w 117 116 -102 0.601568
w 117 -116 102 0.17313
w 117 -116 -102 0.742289
w 118 117 103 0
w 118 117 -103 1
w 118 -117 103 1
w 118 -117 -103 0
w 119 118 104 0
w 119 118 -104 0
w 119 -118 104 0
w 119 -118 -104 1
w 120 119 105 1
w 120 119 -105 1
w 120 -119 105 1
w 120 -119 -105 0
w 121 106 0.494761
w 121 -106 0.448586
w 122 121 107 0.665855
w 122 121 -107 0.118907
w 122 -121 107 0.851896
w 122 -121 -107 0.613385
w 123 122 108 0
w 123 122 -108 1
w 123 -122 108 1
w 123 -122 -108 0
w 124 123 109 0.0032409
w 124 123 -109 0.56893
w 124 -123 109 0.0717897
w 124 -123 -109 0.294923
w 125 124 110 0
w 125 124 -110 1
w 125 -124 110 1
w 125 -124 -110 1
w 126 125 111 0
w 126 125 -111 0
w 126 -125 111 0
w 126 -125 -111 1
w 127 126 112 1
w 127 126 -112 0
w 127 -126 112 1
w 127 -126 -112 0
w 128 127 113 0.235917
w 128 127 -113 0.0475461
w 128 -127 113 0.729633
w 128 -127 -113 0.0878129
w 129 128 114 0.797941
w 129 128 -114 0.108015
w 129 -128 114 0.865004
w 129 -128 -114 0.628052
w 130 129 115 0.670644
w 130 129 -115 0.631293
w 130 -129 115 0.503587
w 130 -129 -115 0.742434
w 131 130 116 0.528221
w 131 130 -116 0.436297
w 131 -130 116 0.0477046
w 131 -130 -116 0.84034
w 132 131 117 0.308387
w 132 131 -117 0.0351781
w 132 -131 117 0.220898
w 132 -131 -117 0.597154
w 133 132 118 1
w 133 132 -118 0
w 133 -132 118 1
w 133 -132 -118 0
w 134 133 119 0.272156
w 134 133 -119 0.266604
w 134 -133 119 0.913321
w 134 -133 -119 0.00178917
w 135 134 120 1
w 135 134 -120 0
w 135 -134 120 0
w 135 -134 -120 1
w 136 121 0
w 136 -121 1
w 137 136 122 1
w 137 136 -122 0
w 137 -136 122 0
w 137 -136 -122 0
w 138 137 123 0
w 138 137 -123 0
w 138 -137 123 0
w 138 -137 -123 1
w 139 138 124 0
w 139 138 -124 1
w 139 -138 124 0
w 139 -138 -124 0
w 140 139 125 0.422622
w 140 139 -125 0.465134
w 140 -139 125 0.71975
w 140 -139 -125 0.288397
w 141 140 126 0.986354
w 141 140 -126 0.201718
w 141 -140 126 0.739079
w 141 -140 -126 0.340771
w 142 141 127 0.53881
w 142 141 -127 0.803203
w 142 -141 127 0.215225
w 142 -141 -127 0.966592
w 143 142 128 1
w 143 142 -128 1
w 143 -142 128 0
w 143 -142 -128 1
w 144 143 129 0.466089
w 144 143 -129 0.0439571
w 144 -143 129 0.799099
w 144 -143 -129 0.283585
w 145 144 130 0
w 145 144 -130 0
w 145 -144 130 1
w 145 -144 -130 0
w 146 145 131 0.372352
w 146 145 -131 0.730793
w 146 -145 131 0.0348974
w 146 -145 -131 0.109642
w 147 146 132 0.236615
w 147 146 -132 0.848721
w 147 -146 132 0.0579183
w 147 -146 -132 0.0125847
w 148 147 133 1
w 148 147 -133 0
w 148 -147 133 0
w 148 -147 -133 0
w 149 148 134 0.379791
w 149 148 -134 0.162378
w 149 -148 134 0.730392
w 149 -148 -134 0.390751
w 150 149 135 0.196481
w 150 149 -135 0.434708
w 150 -149 135 0.491339
w 150 -149 -135 0.480066
w 151 136 0.594853
w 151 -136 0.802045
w 152 151 137 1
w 152 151 -137 1
w 152 -151 137 0
w 152 -151 -137 1
w 153 152 138 0.925326
w 153 152 -138 0.984064
w 153 -152 138 0.261028
w 153 -152 -138 0.161941
w 154 153 139 0.318946
w 154 153 -139 0.174526
w 154 -153 139 0.220316
w 154 -153 -139 0.180067
w 155 154 140 0
w 155 154 -140 0
w 155 -154 140 1
w 155 -154 -140 0
w 156 155 141 0
w 156 155 -141 1
w 156 -155 141 1
w 156 -155 -141 0
w 157 156 142 0.587436
w 157 156 -142 0.362208
w 157 -156 142 0.599739
w 157 -156 -142 0.182289
w 158 157 143 0
w 158 157 -143 0
w 158 -157 143 1
w 158 -157 -143 0
w 159 158 144 0.559422
w 159 158 -144 0.542846
w 159 -158 144 0.78225
w 159 -158 -144 0.721364
w 160 159 145 1
w 160 159 -145 0
w 160 -159 145 0
w 160 -159 -145 1
w 161 160 146 0
w 161 160 -146 1
w 161 -160 146 0
w 161 -160 -146 0
w 162 161 147 0.939157
w 162 161 -147 0.4696
w 162 -161 147 0.0226946
w 162 -161 -147 0.821299
w 163 162 148 0
w 163 162 -148 1
w 163 -162 148 1
w 163 -162 -148 1
w 164 163 149 1
w 164 163 -149 1
w 164 -163 149 0
w 164 -163 -149 1
w 165 164 150 0
w 165 164 -150 0
w 165 -164 150 0
w 165 -164 -150 1
w 166 151 0.954038
w 166 -151 0.729768
w 167 166 152 0
w 167 166 -152 1
w 167 -166 152 0
w 167 -166 -152 0
w 168 167 153 0.844991
w 168 167 -153 0.46037
w 168 -167 153 0.894345
w 168 -167 -153 0.31459
w 169 168 154 0
w 169 168 -154 0
w 169 -168 154 0
w 169 -168 -154 1
w 170 169 155 1
w 170 169 -155 0
w 170 -169 155 0
w 170 -169 -155 0
w 171 170 156 0.232399
w 171 170 -156 0.397953
w 171 -170 156 0.418334
w 171 -170 -156 0.0186141
w 172 171 157 0.0469057
w 172 171 -157 0.526193
w 172 -171 157 0.930397
w 172 -171 -157 0.776673
w 173 172 158 0.480383
w 173 172 -158 0.787704
w 173 -172 158 0.631356
w 173 -172 -158 0.200756
w 174 173 159 0
w 174 173 -159 0
w 174 -173 159 0
w 174 -173 -159 1
w 175 174 160 0
w 175 174 -160 1
w 175 -174 160 1
w 175 -174 -160 0
w 176 175 161 1
w 176 175 -161 1
w 176 -175 161 0
w 176 -175 -161 1
w 177 176 162 0.914608
w 177 176 -162 0.575131
w 177 -176 162 0.00406724
w 177 -176 -162 0.332942
w 178 177 163 0.980427
w 178 177 -163 0.379848
w 178 -177 163 0.119938
w 178 -177 -163 0.910824
w 179 178 164 1
w 179 178 -164 1
w 179 -178 164 1
w 179 -178 -164 0
w 180 179 165 0.265701
w 180 179 -165 0.2675
w 180 -179 165 0.63771
w 180 -179 -165 0.047548
w 181 166 0.998048
w 181 -166 0.312459
w 182 181 167 0.922265
w 182 181 -167 0.670566
w 182 -181 167 0.0406093
w 182 -181 -167 0.259392
w 183 182 168 0.383206
w 183 182 -168 0.602124
w 183 -182 168 0.520402
w 183 -182 -168 0.297814
w 184 183 169 1
w 184 183 -169 0
w 184 -183 169 1
w 184 -183 -169 1
w 185 184 170 0
w 185 184 -170 1
w 185 -184 170 1
w 185 -184 -170 1
w 186 185 171 0.111349
w 186 185 -171 0.621494
w 186 -185 171 0.39889
w 186 -185 -171 0.377051
w 187 186 172 0.0366005
w 187 186 -172 0.424599
w 187 -186 172 0.637384
w 187 -186 -172 0.0346483
w 188 187 173 0.582309
w 188 187 -173 0.956914
w 188 -187 173 0.407625
w 188 -187 -173 0.622918
w 189 188 174 0
w 189 188 -174 1
w 189 -188 174 0
w 189 -188 -174 1
w 190 189 175 0
w 190 189 -175 0
w 190 -189 175 0
w 190 -189 -175 1
w 191 190 176 0.945296
w 191 190 -176 0.657622
w 191 -190 176 0.287398
w 191 -190 -176 0.11242
w 192 191 177 0.0943248
w 192 191 -177 0.22377
w 192 -191 177 0.219654
w 192 -191 -177 0.493215
w 193 192 178 0.108648
w 193 192 -178 0.529815
w 193 -192 178 0.0254193
w 193 -192 -178 0.746032
w 194 193 179 0.762478
w 194 193 -179 0.328341
w 194 -193 179 0.521377
w 194 -193 -179 0.170102
w 195 194 180 0.737683
w 195 194 -180 0.492014
w 195 -194 180 0.957383
w 195 -194 -180 0.556112
w 196 181 0
w 196 -181 1
w 197 196 182 0.701111
w 197 196 -182 0.196012
w 197 -196 182 0.31848
w 197 -196 -182 0.572789
w 198 197 183 0
w 198 197 -183 0
w 198 -197 183 0
w 198 -197 -183 1
w 199 198 184 0.477499
w 199 198 -184 0.793916
w 199 -198 184 0.447727
w 199 -198 -184 0.0783191
w 200 199 185 0.977542
w 200 199 -185 0.103738
w 200 -199 185 0.648596
w 200 -199 -185 0.542006
w 201 200 186 0.976937
w 201 200 -186 0.0633831
w 201 -200 186 0.036318
w 201 -200 -186 0.928196
w 202 201 187 0.528332
w 202 201 -187 0.885579
w 202 -201 187 0.357178
w 202 -201 -187 0.86266
w 203 202 188 0
w 203 202 -188 0
w 203 -202 188 1
w 203 -202 -188 0
w 204 203 189 0
w 204 203 -189 0
w 204 -203 189 1
w 204 -203 -189 1
w 205 204 190 0.95126
w 205 204 -190 0.215447
w 205 -204 190 0.571734
w 205 -204 -190 0.398987
w 206 205 191 1
w 206 205 -191 0
w 206 -205 191 0
w 206 -205 -191 0
w 207 206 192 0.26372
w 207 206 -192 0.0998305
w 207 -206 192 0.981918
w 207 -206 -192 0.300038
w 208 207 193 1
w 208 207 -193 0
w 208 -207 193 0
w 208 -207 -193 1
w 209 208 194 0.0605036
w 209 208 -194 0.0491355
w 209 -208 194 0.254802
w 209 -208 -194 0.403414
w 210 209 195 0
w 210 209 -195 1
w 210 -209 195 1
w 210 -209 -195 1
w 211 196 0.257965
w 211 -196 0.33937
w 212 211 197 0.829699
w 212 211 -197 0.738357
w 212 -211 197 0.134794
w 212 -211 -197 0.303996
w 213 212 198 1
w 213 212 -198 1
w 213 -212 198 1
w 213 -212 -198 0
w 214 213 199 0.0153399
w 214 213 -199 0.0960562
w 214 -213 199 0.554747
w 214 -213 -199 0.798324
w 215 214 200 0.468352
w 215 214 -200 0.938485
w 215 -214 200 0.615457
w 215 -214 -200 0.528855
w 216 215 201 0.870259
w 216 215 -201 0.93227
w 216 -215 201 0.264211
w 216 -215 -201 0.261621
w 217 216 202 0.744357
w 217 216 -202 0.649731
w 217 -216 202 0.445486
w 217 -216 -202 0.00232141
w 218 217 203 0.286514
w 218 217 -203 0.83202
w 218 -217 203 0.727459
w 218 -217 -203 0.421308
w 219 218 204 1
w 219 218 -204 1
w 219 -218 204 0
w 219 -218 -204 0
w 220 219 205 0.0896265
w 220 219 -205 0.891107
w 220 -219 205 0.845681
w 220 -219 -205 0.644373
w 221 220 206 0.770107
w 221 220 -206 0.112725
w 221 -220 206 0.627916
w 221 -220 -206 0.385564
w 222 221 207 0.615537
w 222 221 -207 0.255823
w 222 -221 207 0.573851
w 222 -221 -207 0.879748
w 223 222 208 0.393754
w 223 222 -208 0.624105
w 223 -222 208 0.167175
w 223 -222 -208 0.83924
w 224 223 209 0.156276
w 224 223 -209 0.125754
w 224 -223 209 0.458446
w 224 -223 -209 0.883735
w 225 224 210 0.594463
w 225 224 -210 0.72608
w 225 -224 210 0.500669
w 225 -224 -210 0.157369